Read MPS format model from file dat/rmp/DER_24_2048_30.mps
Reading time = 0.08 seconds
: 2072 rows, 9800 columns, 220656 nonzeros
Gurobi Optimizer version 9.0.0 build v9.0.0rc2 (linux64)
Optimize a model with 2072 rows, 9800 columns and 220656 nonzeros
Model fingerprint: 0x2a95b072
Coefficient statistics:
  Matrix range     [4e-04, 1e+01]
  Objective range  [2e-01, 1e+03]
  Bounds range     [1e+04, 1e+04]
  RHS range        [1e+00, 1e+00]
Ordering time: 0.00s

Barrier statistics:
 AA' NZ     : 4.688e+04
 Factor NZ  : 6.614e+04 (roughly 5 MBytes of memory)
 Factor Ops : 2.306e+06 (less than 1 second per iteration)
 Threads    : 1

                  Objective                Residual
Iter       Primal          Dual         Primal    Dual     Compl     Time
   0   1.89943285e+08 -1.95701098e+07  1.47e+06 1.33e-02  2.52e+05     0s
   1   7.75977546e+06 -5.00501918e+06  5.70e+04 1.82e-12  1.02e+04     0s
   2   4.14967396e+05 -2.62629203e+06  2.81e+03 3.64e-12  7.37e+02     0s
   3   3.72695415e+03 -8.29902493e+05  1.72e-11 5.46e-12  8.49e+01     0s
   4   2.98359180e+03  6.15947610e+02  9.94e-12 3.64e-12  2.41e-01     0s
   5   2.96357391e+03  2.45663317e+03  9.98e-12 3.64e-12  5.16e-02     0s
   6   2.93797101e+03  2.83866531e+03  1.42e-11 1.82e-12  1.01e-02     0s
   7   2.92207476e+03  2.89192084e+03  1.28e-11 3.64e-12  3.07e-03     0s
   8   2.91145823e+03  2.90043746e+03  3.39e-11 1.82e-12  1.12e-03     0s
   9   2.90806292e+03  2.90470338e+03  2.59e-11 3.64e-12  3.42e-04     0s
  10   2.90627181e+03  2.90565877e+03  3.14e-11 1.82e-12  6.24e-05     0s
  11   2.90610076e+03  2.90579370e+03  3.78e-11 1.82e-12  3.13e-05     0s
  12   2.90601788e+03  2.90583299e+03  5.89e-11 3.64e-12  1.88e-05     0s
  13   2.90600014e+03  2.90586436e+03  5.28e-11 3.64e-12  1.38e-05     0s
  14   2.90598346e+03  2.90588502e+03  2.80e-11 1.82e-12  1.00e-05     0s
  15   2.90596589e+03  2.90589616e+03  5.99e-11 1.82e-12  7.10e-06     0s
  16   2.90594622e+03  2.90590319e+03  9.95e-11 1.82e-12  4.38e-06     0s
  17   2.90593417e+03  2.90590592e+03  7.80e-11 1.82e-12  2.88e-06     0s
  18   2.90592996e+03  2.90590910e+03  1.67e-10 1.82e-12  2.12e-06     0s
  19   2.90592478e+03  2.90591231e+03  3.60e-10 1.82e-12  1.27e-06     0s
  20   2.90592083e+03  2.90591334e+03  9.66e-10 1.82e-12  7.62e-07     0s
  21   2.90591911e+03  2.90591358e+03  1.19e-09 1.82e-12  5.63e-07     0s
  22   2.90591741e+03  2.90591399e+03  1.18e-09 1.82e-12  3.47e-07     0s
  23   2.90591650e+03  2.90591405e+03  8.58e-10 1.82e-12  2.50e-07     0s
  24   2.90591555e+03  2.90591431e+03  6.47e-10 3.64e-12  1.26e-07     0s
  25   2.90591483e+03  2.90591445e+03  8.07e-10 5.46e-12  3.89e-08     0s
  26   2.90591477e+03  2.90591447e+03  1.65e-09 1.82e-12  3.04e-08     0s
  27   2.90591455e+03  2.90591448e+03  3.88e-08 1.82e-12  6.71e-09     0s
  28   2.90591449e+03  2.90591449e+03  7.42e-09 5.46e-12  6.46e-11     0s

Barrier solved model in 28 iterations and 0.31 seconds
Optimal objective 2.90591449e+03

Solve time: 0.311229234
Barrier iterations: 28
